c File: flat50_3_0.col
c
c SOURCE: Joseph Culberson (joe@cs.ualberta.ca)
c DESCRIPTION: Quasi-random coloring problem
c              generated with flatness = 0
c                             probability = 0.139
c                             known coloring = 3
c                             random seed = 1637
c              Creation Date:  Tue Jun  9 12:14:12 1998
c Maximum degree = 8 Minimum degree = 1
c p edge 50 115
c cnf created by edge2cnf
p cnf 150 545
-1 -2 0
-1 -3 0
-2 -3 0
1 2 3 0
-4 -5 0
-4 -6 0
-5 -6 0
4 5 6 0
-7 -8 0
-7 -9 0
-8 -9 0
7 8 9 0
-10 -11 0
-10 -12 0
-11 -12 0
10 11 12 0
-13 -14 0
-13 -15 0
-14 -15 0
13 14 15 0
-16 -17 0
-16 -18 0
-17 -18 0
16 17 18 0
-19 -20 0
-19 -21 0
-20 -21 0
19 20 21 0
-22 -23 0
-22 -24 0
-23 -24 0
22 23 24 0
-25 -26 0
-25 -27 0
-26 -27 0
25 26 27 0
-28 -29 0
-28 -30 0
-29 -30 0
28 29 30 0
-31 -32 0
-31 -33 0
-32 -33 0
31 32 33 0
-34 -35 0
-34 -36 0
-35 -36 0
34 35 36 0
-37 -38 0
-37 -39 0
-38 -39 0
37 38 39 0
-40 -41 0
-40 -42 0
-41 -42 0
40 41 42 0
-43 -44 0
-43 -45 0
-44 -45 0
43 44 45 0
-46 -47 0
-46 -48 0
-47 -48 0
46 47 48 0
-49 -50 0
-49 -51 0
-50 -51 0
49 50 51 0
-52 -53 0
-52 -54 0
-53 -54 0
52 53 54 0
-55 -56 0
-55 -57 0
-56 -57 0
55 56 57 0
-58 -59 0
-58 -60 0
-59 -60 0
58 59 60 0
-61 -62 0
-61 -63 0
-62 -63 0
61 62 63 0
-64 -65 0
-64 -66 0
-65 -66 0
64 65 66 0
-67 -68 0
-67 -69 0
-68 -69 0
67 68 69 0
-70 -71 0
-70 -72 0
-71 -72 0
70 71 72 0
-73 -74 0
-73 -75 0
-74 -75 0
73 74 75 0
-76 -77 0
-76 -78 0
-77 -78 0
76 77 78 0
-79 -80 0
-79 -81 0
-80 -81 0
79 80 81 0
-82 -83 0
-82 -84 0
-83 -84 0
82 83 84 0
-85 -86 0
-85 -87 0
-86 -87 0
85 86 87 0
-88 -89 0
-88 -90 0
-89 -90 0
88 89 90 0
-91 -92 0
-91 -93 0
-92 -93 0
91 92 93 0
-94 -95 0
-94 -96 0
-95 -96 0
94 95 96 0
-97 -98 0
-97 -99 0
-98 -99 0
97 98 99 0
-100 -101 0
-100 -102 0
-101 -102 0
100 101 102 0
-103 -104 0
-103 -105 0
-104 -105 0
103 104 105 0
-106 -107 0
-106 -108 0
-107 -108 0
106 107 108 0
-109 -110 0
-109 -111 0
-110 -111 0
109 110 111 0
-112 -113 0
-112 -114 0
-113 -114 0
112 113 114 0
-115 -116 0
-115 -117 0
-116 -117 0
115 116 117 0
-118 -119 0
-118 -120 0
-119 -120 0
118 119 120 0
-121 -122 0
-121 -123 0
-122 -123 0
121 122 123 0
-124 -125 0
-124 -126 0
-125 -126 0
124 125 126 0
-127 -128 0
-127 -129 0
-128 -129 0
127 128 129 0
-130 -131 0
-130 -132 0
-131 -132 0
130 131 132 0
-133 -134 0
-133 -135 0
-134 -135 0
133 134 135 0
-136 -137 0
-136 -138 0
-137 -138 0
136 137 138 0
-139 -140 0
-139 -141 0
-140 -141 0
139 140 141 0
-142 -143 0
-142 -144 0
-143 -144 0
142 143 144 0
-145 -146 0
-145 -147 0
-146 -147 0
145 146 147 0
-148 -149 0
-148 -150 0
-149 -150 0
148 149 150 0
-106 -1 0
-107 -2 0
-108 -3 0
-115 -1 0
-116 -2 0
-117 -3 0
-121 -1 0
-122 -2 0
-123 -3 0
-145 -1 0
-146 -2 0
-147 -3 0
-67 -4 0
-68 -5 0
-69 -6 0
-133 -4 0
-134 -5 0
-135 -6 0
-52 -7 0
-53 -8 0
-54 -9 0
-64 -7 0
-65 -8 0
-66 -9 0
-70 -7 0
-71 -8 0
-72 -9 0
-127 -7 0
-128 -8 0
-129 -9 0
-130 -7 0
-131 -8 0
-132 -9 0
-67 -10 0
-68 -11 0
-69 -12 0
-76 -10 0
-77 -11 0
-78 -12 0
-94 -10 0
-95 -11 0
-96 -12 0
-103 -10 0
-104 -11 0
-105 -12 0
-127 -10 0
-128 -11 0
-129 -12 0
-136 -10 0
-137 -11 0
-138 -12 0
-55 -13 0
-56 -14 0
-57 -15 0
-70 -13 0
-71 -14 0
-72 -15 0
-85 -13 0
-86 -14 0
-87 -15 0
-100 -13 0
-101 -14 0
-102 -15 0
-109 -13 0
-110 -14 0
-111 -15 0
-115 -13 0
-116 -14 0
-117 -15 0
-139 -13 0
-140 -14 0
-141 -15 0
-79 -16 0
-80 -17 0
-81 -18 0
-91 -16 0
-92 -17 0
-93 -18 0
-88 -19 0
-89 -20 0
-90 -21 0
-97 -19 0
-98 -20 0
-99 -21 0
-124 -19 0
-125 -20 0
-126 -21 0
-127 -19 0
-128 -20 0
-129 -21 0
-142 -19 0
-143 -20 0
-144 -21 0
-79 -22 0
-80 -23 0
-81 -24 0
-85 -22 0
-86 -23 0
-87 -24 0
-118 -22 0
-119 -23 0
-120 -24 0
-142 -22 0
-143 -23 0
-144 -24 0
-82 -25 0
-83 -26 0
-84 -27 0
-91 -25 0
-92 -26 0
-93 -27 0
-94 -25 0
-95 -26 0
-96 -27 0
-118 -25 0
-119 -26 0
-120 -27 0
-121 -25 0
-122 -26 0
-123 -27 0
-61 -28 0
-62 -29 0
-63 -30 0
-67 -28 0
-68 -29 0
-69 -30 0
-124 -28 0
-125 -29 0
-126 -30 0
-130 -28 0
-131 -29 0
-132 -30 0
-61 -31 0
-62 -32 0
-63 -33 0
-76 -31 0
-77 -32 0
-78 -33 0
-106 -31 0
-107 -32 0
-108 -33 0
-61 -34 0
-62 -35 0
-63 -36 0
-70 -34 0
-71 -35 0
-72 -36 0
-76 -34 0
-77 -35 0
-78 -36 0
-82 -34 0
-83 -35 0
-84 -36 0
-109 -34 0
-110 -35 0
-111 -36 0
-121 -34 0
-122 -35 0
-123 -36 0
-133 -34 0
-134 -35 0
-135 -36 0
-58 -37 0
-59 -38 0
-60 -39 0
-79 -37 0
-80 -38 0
-81 -39 0
-100 -37 0
-101 -38 0
-102 -39 0
-115 -37 0
-116 -38 0
-117 -39 0
-118 -37 0
-119 -38 0
-120 -39 0
-130 -37 0
-131 -38 0
-132 -39 0
-55 -40 0
-56 -41 0
-57 -42 0
-76 -40 0
-77 -41 0
-78 -42 0
-124 -43 0
-125 -44 0
-126 -45 0
-127 -43 0
-128 -44 0
-129 -45 0
-136 -43 0
-137 -44 0
-138 -45 0
-148 -43 0
-149 -44 0
-150 -45 0
-85 -46 0
-86 -47 0
-87 -48 0
-88 -46 0
-89 -47 0
-90 -48 0
-100 -46 0
-101 -47 0
-102 -48 0
-130 -46 0
-131 -47 0
-132 -48 0
-67 -49 0
-68 -50 0
-69 -51 0
-82 -49 0
-83 -50 0
-84 -51 0
-85 -49 0
-86 -50 0
-87 -51 0
-91 -49 0
-92 -50 0
-93 -51 0
-103 -49 0
-104 -50 0
-105 -51 0
-142 -49 0
-143 -50 0
-144 -51 0
-148 -49 0
-149 -50 0
-150 -51 0
-115 -55 0
-116 -56 0
-117 -57 0
-133 -55 0
-134 -56 0
-135 -57 0
-139 -55 0
-140 -56 0
-141 -57 0
-142 -55 0
-143 -56 0
-144 -57 0
-127 -61 0
-128 -62 0
-129 -63 0
-106 -64 0
-107 -65 0
-108 -66 0
-109 -64 0
-110 -65 0
-111 -66 0
-115 -64 0
-116 -65 0
-117 -66 0
-148 -64 0
-149 -65 0
-150 -66 0
-121 -67 0
-122 -68 0
-123 -69 0
-145 -67 0
-146 -68 0
-147 -69 0
-103 -70 0
-104 -71 0
-105 -72 0
-127 -70 0
-128 -71 0
-129 -72 0
-109 -73 0
-110 -74 0
-111 -75 0
-118 -73 0
-119 -74 0
-120 -75 0
-142 -73 0
-143 -74 0
-144 -75 0
-148 -73 0
-149 -74 0
-150 -75 0
-109 -76 0
-110 -77 0
-111 -78 0
-115 -76 0
-116 -77 0
-117 -78 0
-121 -76 0
-122 -77 0
-123 -78 0
-130 -76 0
-131 -77 0
-132 -78 0
-115 -79 0
-116 -80 0
-117 -81 0
-142 -79 0
-143 -80 0
-144 -81 0
-103 -82 0
-104 -83 0
-105 -84 0
-133 -82 0
-134 -83 0
-135 -84 0
-136 -82 0
-137 -83 0
-138 -84 0
-139 -82 0
-140 -83 0
-141 -84 0
-148 -85 0
-149 -86 0
-150 -87 0
-121 -88 0
-122 -89 0
-123 -90 0
-127 -88 0
-128 -89 0
-129 -90 0
-133 -88 0
-134 -89 0
-135 -90 0
-112 -94 0
-113 -95 0
-114 -96 0
-118 -94 0
-119 -95 0
-120 -96 0
-109 -97 0
-110 -98 0
-111 -99 0
-124 -97 0
-125 -98 0
-126 -99 0
-118 -100 0
-119 -101 0
-120 -102 0
-121 -100 0
-122 -101 0
-123 -102 0
-142 -100 0
-143 -101 0
-144 -102 0
